(set-logic QF_BV)
(declare-fun _substvar_1199_ () (_ BitVec 32))
(declare-fun _substvar_2372_ () (_ BitVec 32))
(declare-fun _substvar_1280_ () (_ BitVec 32))
(declare-fun _substvar_2202_ () (_ BitVec 32))
(declare-fun _substvar_2613_ () Bool)
(declare-fun _substvar_1185_ () (_ BitVec 32))
(declare-fun _substvar_2320_ () (_ BitVec 32))
(declare-fun _substvar_1188_ () (_ BitVec 32))
(declare-fun _substvar_2391_ () (_ BitVec 32))
(declare-fun _substvar_1925_ () (_ BitVec 32))
(declare-fun _substvar_2134_ () (_ BitVec 32))
(declare-fun _substvar_2125_ () (_ BitVec 32))
(declare-fun _substvar_2614_ () Bool)
(declare-fun _substvar_2356_ () (_ BitVec 32))
(assert (let ((?v_168 (bvadd _substvar_2372_ (_ bv2052 32)))) (let ((?v_171 (bvadd ?v_168 (_ bv19008 32)))) (let ((?v_177 (bvadd ?v_171 (_ bv440 32))) (?v_175 (bvadd _substvar_1199_ (_ bv2052 32)))) (let ((?v_173 (bvadd ?v_175 (_ bv19008 32)))) (let ((?v_147 (bvadd _substvar_2134_ (_ bv8 32)))) (let ((?v_170 (bvadd _substvar_1199_ ?v_147))) (and true true true true true (= _substvar_1925_ _substvar_1280_) true true true true true true true true true true true true true true (= _substvar_1188_ (_ bv0 32)) true true true true (= _substvar_2391_ (_ bv0 32)) true true true true true true true true true true true true true true true true true true true true (= _substvar_1185_ _substvar_2202_) true true true true true true true true true true (bvule ?v_173 ?v_177) true true true true true true true true true true true true true true true true true true true true true true true true true true true true true true true true true true true true true true true true true true true true true true true true true true true true true true true true true true true true true true true true true true true true true true true true true true true true true true true true true true true true true true true true true true true true true true true true true true true true true true true true true true true true true true true true true true true true true true true true true true true true true true true true true true true true true true true true true true true true true true true true true true true true true true true true true true true true true true true true true true true true true true true true true true true true true true true true true true true true true true true true true true true true true true true true true true true true true true true true true true true true true true true true true true true true true true true true true true true true true true true true true true true true true true true true true true true true true true true true true true true true true true true true true true true true true true true true true true true true true true true true true true true true true true true true true true true true true true true true true true (bvult (_ bv0 32) _substvar_2320_) true true true true true true true true true true true true true true true true true true true true true true true true true true true true true true true true true true true true true true true true true true true true true true true true true true true true true true true true true true true true true true true true true true true true true true true true true true true true true true true true true true true true (= (bvand _substvar_2125_ (_ bv3221225472 32)) (_ bv0 32)) true true (bvule _substvar_2356_ (_ bv1073741823 32)) _substvar_2614_ true true true true true true true true true true true true true true true true true true true true true true true true true true true true true true true true true true true true true true true true _substvar_2613_ true true true true true true true true true true true true true true true true true true true true true true true true true true true true true true true true true true true true true true true true true true true true true true true true true true true true true true true true true true true true true (bvult ?v_147 (_ bv65536 32)) (bvult (bvadd (bvadd _substvar_2125_ (bvadd _substvar_2372_ ?v_147)) (_ bv2048 32)) ?v_170) true true true true true true true true true true true true true true (bvule (_ bv42496 32) ?v_173) (bvult ?v_171 ?v_173) true true true (bvule ?v_177 (_ bv43520 32))))))))))
(check-sat)
(exit)
